39887 37184 
40198 36470 
39168 37910 
39339 37712 
40363 36208 
40371 36029 
40432 35468 
40423 35699 
40254 36252 
40255 36239 
40041 36568 
40037 37014 
39318 37740 
39476 37474 
38933 38148 
39647 37276 
39739 37224 
39910 37026 
39613 37278 
39367 37700 
39070 37952 
39455 37544 
38796 38199 
38351 38678 
38636 38400 
38383 38619 
38644 38221 
38079 38702 
37713 39007 
37048 39512 
37222 39350 
37417 39306 
37647 39152 
37965 38778 
37802 38898 
